**
** ABAQUS Input Deck Generated by HyperMesh Version  : 2022.3.0.24
** Generated using HyperMesh-Abaqus Template Version : 2022.3.0.24
** Generated on 01-11-2025 at 21:56:41
**
**   Template:  ABAQUS/STANDARD 3D
**
*NODE
         1,  5.0            ,  45.0           ,  0.0            
         2,  15.0           ,  45.0           ,  0.0            
         3,  25.0           ,  45.0           ,  0.0            
         4,  25.0           ,  50.0           ,  0.0            
         5,  12.5           ,  50.0           ,  0.0            
         6,  0.0            ,  50.0           ,  0.0            
         7,  17.928932188134,  32.071067811866,  0.0            
         8,  21.173165676349,  34.238795325113,  0.0            
         9,  25.0           ,  35.0           ,  0.0            
        10,  25.0           ,  40.0           ,  0.0            
        11,  17.5           ,  40.0           ,  0.0            
        12,  10.0           ,  40.0           ,  0.0            
        13,  17.928932188134,  17.928932188134,  0.0            
        14,  15.761204674887,  21.173165676349,  0.0            
        15,  15.0           ,  25.0           ,  0.0            
        16,  10.0           ,  25.0           ,  0.0            
        17,  10.0           ,  17.5           ,  0.0            
        18,  10.0           ,  10.0           ,  0.0            
        19,  32.071067811866,  17.928932188134,  0.0            
        20,  28.826834323651,  15.761204674887,  0.0            
        21,  25.0           ,  15.0           ,  0.0            
        22,  25.0           ,  10.0           ,  0.0            
        23,  32.5           ,  10.0           ,  0.0            
        24,  40.0           ,  10.0           ,  0.0            
        25,  32.071067811866,  32.071067811866,  0.0            
        26,  34.238795325113,  28.826834323651,  0.0            
        27,  35.0           ,  25.0           ,  0.0            
        28,  40.0           ,  25.0           ,  0.0            
        29,  40.0           ,  32.5           ,  0.0            
        30,  40.0           ,  40.0           ,  0.0            
        31,  5.0            ,  25.0           ,  0.0            
        32,  5.0            ,  15.0           ,  0.0            
        33,  5.0            ,  5.0            ,  0.0            
        34,  25.0           ,  5.0            ,  0.0            
        35,  35.0           ,  5.0            ,  0.0            
        36,  45.0           ,  5.0            ,  0.0            
        37,  45.0           ,  25.0           ,  0.0            
        38,  45.0           ,  35.0           ,  0.0            
        39,  45.0           ,  45.0           ,  0.0            
        40,  0.0            ,  25.0           ,  0.0            
        41,  0.0            ,  12.5           ,  0.0            
        42,  0.0            ,  0.0            ,  0.0            
        43,  25.0           ,  0.0            ,  0.0            
        44,  37.5           ,  0.0            ,  0.0            
        45,  50.0           ,  0.0            ,  0.0            
        46,  50.0           ,  25.0           ,  0.0            
        47,  50.0           ,  37.5           ,  0.0            
        48,  50.0           ,  50.0           ,  0.0            
        49,  50.0           ,  12.5           ,  0.0            
        50,  45.0           ,  15.0           ,  0.0            
        51,  12.5           ,  0.0            ,  0.0            
        52,  15.0           ,  5.0            ,  0.0            
        53,  0.0            ,  37.5           ,  0.0            
        54,  5.0            ,  35.0           ,  0.0            
        55,  40.0           ,  17.5           ,  0.0            
        56,  17.5           ,  10.0           ,  0.0            
        57,  10.0           ,  32.5           ,  0.0            
        58,  34.238795325113,  21.173165676349,  0.0            
        59,  21.173165676349,  15.761204674887,  0.0            
        60,  32.5           ,  40.0           ,  0.0            
        61,  28.826834323651,  34.238795325113,  0.0            
        62,  35.0           ,  45.0           ,  0.0            
        63,  15.761204674887,  28.826834323651,  0.0            
        64,  37.5           ,  50.0           ,  0.0            
        65,  95.0           ,  45.0           ,  0.0            
        66,  85.0           ,  45.0           ,  0.0            
        67,  75.0           ,  45.0           ,  0.0            
        68,  75.0           ,  50.0           ,  0.0            
        69,  87.5           ,  50.0           ,  0.0            
        70,  100.0          ,  50.0           ,  0.0            
        71,  82.071067811866,  32.071067811866,  0.0            
        72,  78.826834323651,  34.238795325113,  0.0            
        73,  75.0           ,  35.0           ,  0.0            
        74,  75.0           ,  40.0           ,  0.0            
        75,  82.5           ,  40.0           ,  0.0            
        76,  90.0           ,  40.0           ,  0.0            
        77,  82.071067811866,  17.928932188134,  0.0            
        78,  84.238795325113,  21.173165676349,  0.0            
        79,  85.0           ,  25.0           ,  0.0            
        80,  90.0           ,  25.0           ,  0.0            
        81,  90.0           ,  17.5           ,  0.0            
        82,  90.0           ,  10.0           ,  0.0            
        83,  67.928932188134,  17.928932188134,  0.0            
        84,  71.173165676349,  15.761204674887,  0.0            
        85,  75.0           ,  15.0           ,  0.0            
        86,  75.0           ,  10.0           ,  0.0            
        87,  67.5           ,  10.0           ,  0.0            
        88,  60.0           ,  10.0           ,  0.0            
        89,  67.928932188134,  32.071067811866,  0.0            
        90,  65.761204674887,  28.826834323651,  0.0            
        91,  65.0           ,  25.0           ,  0.0            
        92,  60.0           ,  25.0           ,  0.0            
        93,  60.0           ,  32.5           ,  0.0            
        94,  60.0           ,  40.0           ,  0.0            
        95,  95.0           ,  25.0           ,  0.0            
        96,  95.0           ,  15.0           ,  0.0            
        97,  95.0           ,  5.0            ,  0.0            
        98,  75.0           ,  5.0            ,  0.0            
        99,  65.0           ,  5.0            ,  0.0            
       100,  55.0           ,  5.0            ,  0.0            
       101,  55.0           ,  25.0           ,  0.0            
       102,  55.0           ,  35.0           ,  0.0            
       103,  55.0           ,  45.0           ,  0.0            
       104,  100.0          ,  25.0           ,  0.0            
       105,  100.0          ,  12.5           ,  0.0            
       106,  100.0          ,  0.0            ,  0.0            
       107,  75.0           ,  0.0            ,  0.0            
       108,  62.5           ,  0.0            ,  0.0            
       114,  55.0           ,  15.0           ,  0.0            
       115,  87.5           ,  0.0            ,  0.0            
       116,  85.0           ,  5.0            ,  0.0            
       117,  100.0          ,  37.5           ,  0.0            
       118,  95.0           ,  35.0           ,  0.0            
       119,  60.0           ,  17.5           ,  0.0            
       120,  82.5           ,  10.0           ,  0.0            
       121,  90.0           ,  32.5           ,  0.0            
       122,  65.761204674887,  21.173165676349,  0.0            
       123,  78.826834323651,  15.761204674887,  0.0            
       124,  67.5           ,  40.0           ,  0.0            
       125,  71.173165676349,  34.238795325113,  0.0            
       126,  65.0           ,  45.0           ,  0.0            
       127,  84.238795325113,  28.826834323651,  0.0            
       128,  62.5           ,  50.0           ,  0.0            
*ELEMENT,TYPE=S4
         1,         4,         5,         2,         3
         2,         5,         6,         1,         2
         3,        10,        11,         8,         9
         4,        11,        12,         7,         8
         5,         3,         2,        11,        10
         6,         2,         1,        12,        11
         7,        16,        17,        14,        15
         8,        17,        18,        13,        14
         9,        22,        23,        20,        21
        10,        23,        24,        19,        20
        11,        28,        29,        26,        27
        12,        29,        30,        25,        26
        13,        31,        32,        17,        16
        14,        32,        33,        18,        17
        15,        34,        35,        23,        22
        16,        35,        36,        24,        23
        17,        37,        38,        29,        28
        18,        38,        39,        30,        29
        19,        40,        41,        32,        31
        20,        41,        42,        33,        32
        21,        43,        44,        35,        34
        22,        44,        45,        36,        35
        23,        46,        47,        38,        37
        24,        47,        48,        39,        38
        25,        36,        45,        49,        50
        26,        50,        49,        46,        37
        27,        33,        42,        51,        52
        28,        52,        51,        43,        34
        29,         1,         6,        53,        54
        30,        54,        53,        40,        31
        31,        24,        36,        50,        55
        32,        55,        50,        37,        28
        33,        18,        33,        52,        56
        34,        56,        52,        34,        22
        35,        12,         1,        54,        57
        36,        57,        54,        31,        16
        37,        19,        24,        55,        58
        38,        58,        55,        28,        27
        39,        13,        18,        56,        59
        40,        59,        56,        22,        21
        41,        25,        30,        60,        61
        42,        61,        60,        10,         9
        43,        30,        39,        62,        60
        44,        60,        62,         3,        10
        45,         7,        12,        57,        63
        46,        63,        57,        16,        15
        47,        39,        48,        64,        62
        48,        62,        64,         4,         3
        49,        68,        67,        66,        69
        50,        69,        66,        65,        70
        51,        74,        73,        72,        75
        52,        75,        72,        71,        76
        53,        67,        74,        75,        66
        54,        66,        75,        76,        65
        55,        80,        79,        78,        81
        56,        81,        78,        77,        82
        57,        86,        85,        84,        87
        58,        87,        84,        83,        88
        59,        92,        91,        90,        93
        60,        93,        90,        89,        94
        61,        95,        80,        81,        96
        62,        96,        81,        82,        97
        63,        98,        86,        87,        99
        64,        99,        87,        88,       100
        65,       101,        92,        93,       102
        66,       102,        93,        94,       103
        67,       104,        95,        96,       105
        68,       105,        96,        97,       106
        69,       107,        98,        99,       108
        70,       108,        99,       100,        45
        71,        46,       101,       102,        47
        72,        47,       102,       103,        48
        73,       100,       114,        49,        45
        74,       114,       101,        46,        49
        75,        97,       116,       115,       106
        76,       116,        98,       107,       115
        77,        65,       118,       117,        70
        78,       118,        95,       104,       117
        79,        88,       119,       114,       100
        80,       119,        92,       101,       114
        81,        82,       120,       116,        97
        82,       120,        86,        98,       116
        83,        76,       121,       118,        65
        84,       121,        80,        95,       118
        85,        83,       122,       119,        88
        86,       122,        91,        92,       119
        87,        77,       123,       120,        82
        88,       123,        85,        86,       120
        89,        89,       125,       124,        94
        90,       125,        73,        74,       124
        91,        94,       124,       126,       103
        92,       124,        74,        67,       126
        93,        71,       127,       121,        76
        94,       127,        79,        80,       121
        95,       103,       126,       128,        48
        96,       126,        67,        68,       128
*****
