**
** ABAQUS Input Deck Generated by HyperMesh Version  : 2022.3.0.24
** Generated using HyperMesh-Abaqus Template Version : 2022.3.0.24
** Generated on 01-10-2025 at 15:25:59
**
**   Template:  ABAQUS/STANDARD 3D
**
*NODE
         1,  5.0            ,  45.0           ,  0.0            
         2,  15.0           ,  45.0           ,  0.0            
         3,  25.0           ,  45.0           ,  0.0            
         4,  25.0           ,  50.0           ,  0.0            
         5,  12.5           ,  50.0           ,  0.0            
         6,  0.0            ,  50.0           ,  0.0            
         7,  17.928932188134,  32.071067811866,  0.0            
         8,  21.173165676349,  34.238795325113,  0.0            
         9,  25.0           ,  35.0           ,  0.0            
        10,  25.0           ,  40.0           ,  0.0            
        11,  17.5           ,  40.0           ,  0.0            
        12,  10.0           ,  40.0           ,  0.0            
        13,  17.928932188134,  17.928932188134,  0.0            
        14,  15.761204674887,  21.173165676349,  0.0            
        15,  15.0           ,  25.0           ,  0.0            
        16,  10.0           ,  25.0           ,  0.0            
        17,  10.0           ,  17.5           ,  0.0            
        18,  10.0           ,  10.0           ,  0.0            
        19,  32.071067811866,  17.928932188134,  0.0            
        20,  28.826834323651,  15.761204674887,  0.0            
        21,  25.0           ,  15.0           ,  0.0            
        22,  25.0           ,  10.0           ,  0.0            
        23,  32.5           ,  10.0           ,  0.0            
        24,  40.0           ,  10.0           ,  0.0            
        25,  32.071067811866,  32.071067811866,  0.0            
        26,  34.238795325113,  28.826834323651,  0.0            
        27,  35.0           ,  25.0           ,  0.0            
        28,  40.0           ,  25.0           ,  0.0            
        29,  40.0           ,  32.5           ,  0.0            
        30,  40.0           ,  40.0           ,  0.0            
        31,  5.0            ,  25.0           ,  0.0            
        32,  5.0            ,  15.0           ,  0.0            
        33,  5.0            ,  5.0            ,  0.0            
        34,  25.0           ,  5.0            ,  0.0            
        35,  35.0           ,  5.0            ,  0.0            
        36,  45.0           ,  5.0            ,  0.0            
        37,  45.0           ,  25.0           ,  0.0            
        38,  45.0           ,  35.0           ,  0.0            
        39,  45.0           ,  45.0           ,  0.0            
        40,  0.0            ,  25.0           ,  0.0            
        41,  0.0            ,  12.5           ,  0.0            
        42,  0.0            ,  0.0            ,  0.0            
        43,  25.0           ,  0.0            ,  0.0            
        44,  37.5           ,  0.0            ,  0.0            
        45,  50.0           ,  0.0            ,  0.0            
        46,  50.0           ,  25.0           ,  0.0            
        47,  50.0           ,  37.5           ,  0.0            
        48,  50.0           ,  50.0           ,  0.0            
        49,  50.0           ,  12.5           ,  0.0            
        50,  45.0           ,  15.0           ,  0.0            
        51,  12.5           ,  0.0            ,  0.0            
        52,  15.0           ,  5.0            ,  0.0            
        53,  0.0            ,  37.5           ,  0.0            
        54,  5.0            ,  35.0           ,  0.0            
        55,  40.0           ,  17.5           ,  0.0            
        56,  17.5           ,  10.0           ,  0.0            
        57,  10.0           ,  32.5           ,  0.0            
        58,  34.238795325113,  21.173165676349,  0.0            
        59,  21.173165676349,  15.761204674887,  0.0            
        60,  32.5           ,  40.0           ,  0.0            
        61,  28.826834323651,  34.238795325113,  0.0            
        62,  35.0           ,  45.0           ,  0.0            
        63,  15.761204674887,  28.826834323651,  0.0            
        64,  37.5           ,  50.0           ,  0.0            
*ELEMENT,TYPE=S4
         1,         4,         5,         2,         3
         2,         5,         6,         1,         2
         3,        10,        11,         8,         9
         4,        11,        12,         7,         8
         5,         3,         2,        11,        10
         6,         2,         1,        12,        11
         7,        16,        17,        14,        15
         8,        17,        18,        13,        14
         9,        22,        23,        20,        21
        10,        23,        24,        19,        20
        11,        28,        29,        26,        27
        12,        29,        30,        25,        26
        13,        31,        32,        17,        16
        14,        32,        33,        18,        17
        15,        34,        35,        23,        22
        16,        35,        36,        24,        23
        17,        37,        38,        29,        28
        18,        38,        39,        30,        29
        19,        40,        41,        32,        31
        20,        41,        42,        33,        32
        21,        43,        44,        35,        34
        22,        44,        45,        36,        35
        23,        46,        47,        38,        37
        24,        47,        48,        39,        38
        25,        36,        45,        49,        50
        26,        50,        49,        46,        37
        27,        33,        42,        51,        52
        28,        52,        51,        43,        34
        29,         1,         6,        53,        54
        30,        54,        53,        40,        31
        31,        24,        36,        50,        55
        32,        55,        50,        37,        28
        33,        18,        33,        52,        56
        34,        56,        52,        34,        22
        35,        12,         1,        54,        57
        36,        57,        54,        31,        16
        37,        19,        24,        55,        58
        38,        58,        55,        28,        27
        39,        13,        18,        56,        59
        40,        59,        56,        22,        21
        41,        25,        30,        60,        61
        42,        61,        60,        10,         9
        43,        30,        39,        62,        60
        44,        60,        62,         3,        10
        45,         7,        12,        57,        63
        46,        63,        57,        16,        15
        47,        39,        48,        64,        62
        48,        62,        64,         4,         3
*****
