**
** ABAQUS Input Deck Generated by HyperMesh Version  : 2022.3.0.24
** Generated using HyperMesh-Abaqus Template Version : 2022.3.0.24
** Generated on 01-13-2025 at 11:22:48
**
**   Template:  ABAQUS/STANDARD 3D
**
*NODE
         1,  50.0           ,  20.0           ,  0.5            
         2,  48.0           ,  20.0           ,  0.5            
         3,  46.0           ,  20.0           ,  0.5            
         4,  44.0           ,  20.0           ,  0.5            
         5,  42.0           ,  20.0           ,  0.5            
         6,  40.0           ,  20.0           ,  0.5            
         7,  38.0           ,  20.0           ,  0.5            
         8,  36.0           ,  20.0           ,  0.5            
         9,  34.0           ,  20.0           ,  0.5            
        10,  32.0           ,  20.0           ,  0.5            
        11,  30.0           ,  20.0           ,  0.5            
        12,  28.0           ,  20.0           ,  0.5            
        13,  26.0           ,  20.0           ,  0.5            
        14,  24.0           ,  20.0           ,  0.5            
        15,  22.0           ,  20.0           ,  0.5            
        16,  20.0           ,  20.0           ,  0.5            
        17,  18.0           ,  20.0           ,  0.5            
        18,  16.0           ,  20.0           ,  0.5            
        19,  14.0           ,  20.0           ,  0.5            
        20,  12.0           ,  20.0           ,  0.5            
        21,  10.0           ,  20.0           ,  0.5            
        22,  8.0            ,  20.0           ,  0.5            
        23,  6.0            ,  20.0           ,  0.5            
        24,  4.0            ,  20.0           ,  0.5            
        25,  2.0            ,  20.0           ,  0.5            
        26,  7.105427358E-15,  20.0           ,  0.5            
        27,  -2.0           ,  20.0           ,  0.5            
        28,  -4.0           ,  20.0           ,  0.5            
        29,  -6.0           ,  20.0           ,  0.5            
        30,  -8.0           ,  20.0           ,  0.5            
        31,  -10.0          ,  20.0           ,  0.5            
        32,  -12.0          ,  20.0           ,  0.5            
        33,  -14.0          ,  20.0           ,  0.5            
        34,  -16.0          ,  20.0           ,  0.5            
        35,  -18.0          ,  20.0           ,  0.5            
        36,  -20.0          ,  20.0           ,  0.5            
        37,  -22.0          ,  20.0           ,  0.5            
        38,  -24.0          ,  20.0           ,  0.5            
        39,  -26.0          ,  20.0           ,  0.5            
        40,  -28.0          ,  20.0           ,  0.5            
        41,  -30.0          ,  20.0           ,  0.5            
        42,  -32.0          ,  20.0           ,  0.5            
        43,  -34.0          ,  20.0           ,  0.5            
        44,  -36.0          ,  20.0           ,  0.5            
        45,  -38.0          ,  20.0           ,  0.5            
        46,  -40.0          ,  20.0           ,  0.5            
        47,  -42.0          ,  20.0           ,  0.5            
        48,  -44.0          ,  20.0           ,  0.5            
        49,  -46.0          ,  20.0           ,  0.5            
        50,  -48.0          ,  20.0           ,  0.5            
        51,  -50.0          ,  20.0           ,  0.5            
        52,  -50.0          ,  18.0           ,  0.5            
        53,  -50.0          ,  16.0           ,  0.5            
        54,  -50.0          ,  14.0           ,  0.5            
        55,  -50.0          ,  12.0           ,  0.5            
        56,  -50.0          ,  10.0           ,  0.5            
        57,  -50.0          ,  8.0            ,  0.5            
        58,  -50.0          ,  6.0            ,  0.5            
        59,  -50.0          ,  4.0            ,  0.5            
        60,  -50.0          ,  2.0            ,  0.5            
        61,  -50.0          ,  0.0            ,  0.5            
        62,  -50.0          ,  -2.0           ,  0.5            
        63,  -50.0          ,  -4.0           ,  0.5            
        64,  -50.0          ,  -6.0           ,  0.5            
        65,  -50.0          ,  -8.0           ,  0.5            
        66,  -50.0          ,  -10.0          ,  0.5            
        67,  -50.0          ,  -12.0          ,  0.5            
        68,  -50.0          ,  -14.0          ,  0.5            
        69,  -50.0          ,  -16.0          ,  0.5            
        70,  -50.0          ,  -18.0          ,  0.5            
        71,  -50.0          ,  -20.0          ,  0.5            
        72,  -48.0          ,  -20.0          ,  0.5            
        73,  -46.0          ,  -20.0          ,  0.5            
        74,  -44.0          ,  -20.0          ,  0.5            
        75,  -42.0          ,  -20.0          ,  0.5            
        76,  -40.0          ,  -20.0          ,  0.5            
        77,  -38.0          ,  -20.0          ,  0.5            
        78,  -36.0          ,  -20.0          ,  0.5            
        79,  -34.0          ,  -20.0          ,  0.5            
        80,  -32.0          ,  -20.0          ,  0.5            
        81,  -30.0          ,  -20.0          ,  0.5            
        82,  -28.0          ,  -20.0          ,  0.5            
        83,  -26.0          ,  -20.0          ,  0.5            
        84,  -24.0          ,  -20.0          ,  0.5            
        85,  -22.0          ,  -20.0          ,  0.5            
        86,  -20.0          ,  -20.0          ,  0.5            
        87,  -18.0          ,  -20.0          ,  0.5            
        88,  -16.0          ,  -20.0          ,  0.5            
        89,  -14.0          ,  -20.0          ,  0.5            
        90,  -12.0          ,  -20.0          ,  0.5            
        91,  -10.0          ,  -20.0          ,  0.5            
        92,  -8.0           ,  -20.0          ,  0.5            
        93,  -6.0           ,  -20.0          ,  0.5            
        94,  -4.0           ,  -20.0          ,  0.5            
        95,  -2.0           ,  -20.0          ,  0.5            
        96,  7.105427358E-15,  -20.0          ,  0.5            
        97,  2.0            ,  -20.0          ,  0.5            
        98,  4.0            ,  -20.0          ,  0.5            
        99,  6.0            ,  -20.0          ,  0.5            
       100,  8.0            ,  -20.0          ,  0.5            
       101,  10.0           ,  -20.0          ,  0.5            
       102,  12.0           ,  -20.0          ,  0.5            
       103,  14.0           ,  -20.0          ,  0.5            
       104,  16.0           ,  -20.0          ,  0.5            
       105,  18.0           ,  -20.0          ,  0.5            
       106,  20.0           ,  -20.0          ,  0.5            
       107,  22.0           ,  -20.0          ,  0.5            
       108,  24.0           ,  -20.0          ,  0.5            
       109,  26.0           ,  -20.0          ,  0.5            
       110,  28.0           ,  -20.0          ,  0.5            
       111,  30.0           ,  -20.0          ,  0.5            
       112,  32.0           ,  -20.0          ,  0.5            
       113,  34.0           ,  -20.0          ,  0.5            
       114,  36.0           ,  -20.0          ,  0.5            
       115,  38.0           ,  -20.0          ,  0.5            
       116,  40.0           ,  -20.0          ,  0.5            
       117,  42.0           ,  -20.0          ,  0.5            
       118,  44.0           ,  -20.0          ,  0.5            
       119,  46.0           ,  -20.0          ,  0.5            
       120,  48.0           ,  -20.0          ,  0.5            
       121,  50.0           ,  -20.0          ,  0.5            
       122,  50.0           ,  -18.0          ,  0.5            
       123,  50.0           ,  -16.0          ,  0.5            
       124,  50.0           ,  -14.0          ,  0.5            
       125,  50.0           ,  -12.0          ,  0.5            
       126,  50.0           ,  -10.0          ,  0.5            
       127,  50.0           ,  -8.0           ,  0.5            
       128,  50.0           ,  -6.0           ,  0.5            
       129,  50.0           ,  -4.0           ,  0.5            
       130,  50.0           ,  -2.0           ,  0.5            
       131,  50.0           ,  0.0            ,  0.5            
       132,  50.0           ,  2.0            ,  0.5            
       133,  50.0           ,  4.0            ,  0.5            
       134,  50.0           ,  6.0            ,  0.5            
       135,  50.0           ,  8.0            ,  0.5            
       136,  50.0           ,  10.0           ,  0.5            
       137,  50.0           ,  12.0           ,  0.5            
       138,  50.0           ,  14.0           ,  0.5            
       139,  50.0           ,  16.0           ,  0.5            
       140,  50.0           ,  18.0           ,  0.5            
       141,  -12.5          ,  -11.0          ,  0.5            
       142,  -12.5          ,  -9.001264009844,  0.5            
       143,  -12.5          ,  -7.002528019689,  0.5            
       144,  -12.5          ,  -5.003792029533,  0.5            
       145,  -12.5          ,  -3.005056039378,  0.5            
       146,  -12.5          ,  -1.006320049222,  0.5            
       147,  -12.5          ,  0.9924159409337,  0.5            
       148,  -12.5          ,  2.9911519310893,  0.5            
       149,  -12.5          ,  4.9898879212449,  0.5            
       150,  -12.5          ,  6.9886239114005,  0.5            
       151,  -12.5          ,  8.9873599015561,  0.5            
       152,  -12.30420427761,  10.959696280721,  0.5            
       153,  -10.91720067538,  12.321806533685,  0.5            
       154,  -8.94136244719 ,  12.5           ,  0.5            
       155,  -6.942626781318,  12.5           ,  0.5            
       156,  -4.943891115446,  12.5           ,  0.5            
       157,  -2.945155449575,  12.5           ,  0.5            
       158,  -0.946419783703,  12.5           ,  0.5            
       159,  1.0523158821692,  12.5           ,  0.5            
       160,  3.0510515480411,  12.5           ,  0.5            
       161,  5.049787213913 ,  12.5           ,  0.5            
       162,  7.0485228797849,  12.5           ,  0.5            
       163,  9.0472585456568,  12.5           ,  0.5            
       164,  11.024107912409,  12.32688591591 ,  0.5            
       165,  12.418295300374,  10.971957896911,  0.5            
       166,  12.619169950485,  9.0006319354713,  0.5            
       167,  12.619169950485,  7.0018958064139,  0.5            
       168,  12.619169950485,  5.0031596773565,  0.5            
       169,  12.619169950485,  3.0044235482992,  0.5            
       170,  12.619169950485,  1.0056874192418,  0.5            
       171,  12.619169950485,  -0.993048709816,  0.5            
       172,  12.619169950485,  -2.991784838873,  0.5            
       173,  12.619169950485,  -4.99052096793 ,  0.5            
       174,  12.619169950485,  -6.989257096988,  0.5            
       175,  12.619169950485,  -8.987993226045,  0.5            
       176,  12.619169950485,  -10.9867293551 ,  0.5            
       177,  11.869787227903,  -12.78309284004,  0.5            
       178,  10.059911196902,  -13.5          ,  0.5            
       179,  8.0611736309118,  -13.5          ,  0.5            
       180,  6.0624360649222,  -13.5          ,  0.5            
       181,  4.0636984989325,  -13.5          ,  0.5            
       182,  2.0649609329429,  -13.5          ,  0.5            
       183,  0.0662233669532,  -13.5          ,  0.5            
       184,  -1.932514199036,  -13.5          ,  0.5            
       185,  -3.931251765026,  -13.5          ,  0.5            
       186,  -5.929989331016,  -13.5          ,  0.5            
       187,  -7.928726897005,  -13.5          ,  0.5            
       188,  -9.927464462995,  -13.5          ,  0.5            
       189,  -11.74072218705,  -12.79193563342,  0.5            
       190,  37.419372349978,  -11.0          ,  0.5            
       191,  37.029663898512,  -12.93242545295,  0.5            
       192,  35.923604827556,  -14.56373200893,  0.5            
       193,  34.273297028327,  -15.64061284105,  0.5            
       194,  32.335292171364,  -15.99594499086,  0.5            
       195,  30.410743485733,  -15.57469954734,  0.5            
       196,  28.79865088893 ,  -14.44245413045,  0.5            
       197,  27.749450166857,  -12.77519239177,  0.5            
       198,  27.419372349978,  -10.8318387486 ,  0.5            
       199,  27.419372349978,  -8.847854105875,  0.5            
       200,  27.419372349978,  -6.863869463151,  0.5            
       201,  27.419372349978,  -4.879884820427,  0.5            
       202,  27.419372349978,  -2.895900177704,  0.5            
       203,  27.419372349978,  -0.91191553498 ,  0.5            
       204,  27.419372349978,  1.0720691077436,  0.5            
       205,  27.419372349978,  3.0560537504672,  0.5            
       206,  27.419372349978,  5.0400383931909,  0.5            
       207,  27.419372349978,  7.0240230359145,  0.5            
       208,  27.419372349978,  9.0080076786382,  0.5            
       209,  27.521460805435,  10.984958688388,  0.5            
       210,  28.2828150634  ,  12.80183745395 ,  0.5            
       211,  29.687275744772,  14.183358018712,  0.5            
       212,  31.516697208035,  14.914790967357,  0.5            
       213,  33.486906316022,  14.882339297314,  0.5            
       214,  35.291764371869,  14.090821574173,  0.5            
       215,  36.650722272282,  12.662976931682,  0.5            
       216,  37.350920394612,  10.820196213449,  0.5            
       217,  37.419372349978,  8.8398473424035,  0.5            
       218,  37.419372349978,  6.8558626081632,  0.5            
       219,  37.419372349978,  4.8718778739228,  0.5            
       220,  37.419372349978,  2.8878931396824,  0.5            
       221,  37.419372349978,  0.9039084054421,  0.5            
       222,  37.419372349978,  -1.080076328798,  0.5            
       223,  37.419372349978,  -3.064061063038,  0.5            
       224,  37.419372349978,  -5.048045797279,  0.5            
       225,  37.419372349978,  -7.032030531519,  0.5            
       226,  37.419372349978,  -9.01601526576 ,  0.5            
       227,  -42.0          ,  10.0           ,  0.5            
       228,  -41.61774540208,  11.912771256432,  0.5            
       229,  -40.53335488965,  13.533412366269,  0.5            
       230,  -38.91193913713,  14.615895190145,  0.5            
       231,  -37.00000066252,  14.995944990858,  0.5            
       232,  -35.08806156252,  14.615895488241,  0.5            
       233,  -33.46664627296,  13.53341357668 ,  0.5            
       234,  -32.38225477212,  11.912771715771,  0.5            
       235,  -32.00000001884,  10.000000467627,  0.5            
       236,  -32.38225428887,  8.0872295584488,  0.5            
       237,  -33.46664500138,  6.4665877471759,  0.5            
       238,  -35.08806029105,  5.3841050534834,  0.5            
       239,  -36.99999812796,  5.0040550091422,  0.5            
       240,  -38.91193863256,  5.3841045948756,  0.5            
       241,  -40.53335467442,  6.4665874096494,  0.5            
       242,  -41.61774513027,  8.0872280268712,  0.5            
       243,  -42.0          ,  -11.0          ,  0.5            
       244,  -41.61774540208,  -9.087228743568,  0.5            
       245,  -40.53335488965,  -7.466587633731,  0.5            
       246,  -38.91193913713,  -6.384104809855,  0.5            
       247,  -37.00000066252,  -6.004055009142,  0.5            
       248,  -35.08806156252,  -6.384104511759,  0.5            
       249,  -33.46664627296,  -7.46658642332 ,  0.5            
       250,  -32.38225477212,  -9.087228284229,  0.5            
       251,  -32.00000001884,  -10.99999953237,  0.5            
       252,  -32.38225428887,  -12.91277044155,  0.5            
       253,  -33.46664500138,  -14.53341225282,  0.5            
       254,  -35.08806029105,  -15.61589494652,  0.5            
       255,  -36.99999812796,  -15.99594499086,  0.5            
       256,  -38.91193863256,  -15.61589540512,  0.5            
       257,  -40.53335467442,  -14.53341259035,  0.5            
       258,  -41.61774513027,  -12.91277197313,  0.5            
       259,  -48.02047124697,  -17.99390817444,  0.5            
       260,  -46.02535562222,  -18.02575520021,  0.5            
       261,  -47.97475516762,  -15.99506324374,  0.5            
       262,  -43.99480281503,  -18.09214990913,  0.5            
       263,  -45.90498958832,  -16.07959358986,  0.5            
       264,  -47.90323076454,  -14.01851195496,  0.5            
       265,  -43.75391176844,  -16.21949623243,  0.5            
       266,  -41.83773923623,  -17.22133791663,  0.5            
       267,  -47.90003382463,  -12.04500508882,  0.5            
       268,  -45.72970253004,  -14.17079325186,  0.5            
       269,  -43.34670026551,  -14.51233107972,  0.5            
       270,  -47.90477156441,  -10.04507487496,  0.5            
       271,  -45.78688184277,  -12.22652449785,  0.5            
       272,  -39.80293017639,  -17.68060549343,  0.5            
       273,  -43.67493787274,  -12.54299960993,  0.5            
       274,  -47.85857134252,  -8.037363576688,  0.5            
       275,  -45.83894801492,  -10.21034835173,  0.5            
       276,  -37.93174285562,  -17.99550426961,  0.5            
       277,  -43.85194500767,  -10.51660686749,  0.5            
       278,  -45.71778777066,  -8.18362659354 ,  0.5            
       279,  -36.13904058323,  -18.00564434346,  0.5            
       280,  -47.81703050535,  -6.041432693618,  0.5            
       281,  -43.59815608508,  -8.512354419568,  0.5            
       282,  -34.34392303478,  -17.71705842986,  0.5            
       283,  -45.58395877979,  -6.186760240351,  0.5            
       284,  -47.84929970709,  -4.059587332886,  0.5            
       285,  -47.92770471712,  -2.108092534549,  0.5            
       286,  -43.22677835971,  -6.561002927675,  0.5            
       287,  -32.47354614871,  -17.42227360744,  0.5            
       288,  -45.66331401352,  -4.179432662335,  0.5            
       289,  -30.4093047941 ,  -17.68608774952,  0.5            
       290,  -48.02258677988,  -0.201018397852,  0.5            
       291,  -45.82884470203,  -2.201821671578,  0.5            
       292,  -43.45592835658,  -4.473481545047,  0.5            
       293,  -30.71764397243,  -15.562652295  ,  0.5            
       294,  -48.14080486295,  1.6231996070877,  0.5            
       295,  -41.36454077313,  -4.758139100413,  0.5            
       296,  -28.20423792177,  -17.90724489819,  0.5            
       297,  -46.00367815871,  -0.279284015671,  0.5            
       298,  -43.75154243312,  -2.341382679264,  0.5            
       299,  -46.22583394245,  1.5186707296881,  0.5            
       300,  -41.72643710641,  -2.441256964086,  0.5            
       301,  -43.99335471037,  -0.276442408458,  0.5            
       302,  -26.08442156604,  -17.98162761874,  0.5            
       303,  -28.30017398919,  -15.90752704176,  0.5            
       304,  -39.44383536206,  -4.409496461846,  0.5            
       305,  -30.38222068803,  -13.6711817295 ,  0.5            
       306,  -47.35164346497,  3.2066786511999,  0.5            
       307,  -44.34227415948,  1.6883378066703,  0.5            
       308,  -47.58809737869,  4.8529621650831,  0.5            
       309,  -30.02701487126,  -11.91425518836,  0.5            
       310,  -39.77082594655,  -2.317213280976,  0.5            
       311,  -26.11313150436,  -15.99211612849,  0.5            
       312,  -42.00982443034,  -0.262290518052,  0.5            
       313,  -24.0          ,  -18.0          ,  0.5            
       314,  -28.18105374916,  -13.9624375862 ,  0.5            
       315,  -44.91920992785,  3.5256801684811,  0.5            
       316,  -37.54781478092,  -4.137939034807,  0.5            
       317,  -47.87812257619,  6.5164236159883,  0.5            
       318,  -42.34756185009,  1.8107936980737,  0.5            
       319,  -30.02081619818,  -10.17964825465,  0.5            
       320,  -45.27327441045,  5.2701825993294,  0.5            
       321,  -40.04667119402,  -0.207991883005,  0.5            
       322,  -26.07310028063,  -14.00479530534,  0.5            
       323,  -24.0          ,  -16.0          ,  0.5            
       324,  -22.0          ,  -18.0          ,  0.5            
       325,  -28.02299945933,  -12.01939306029,  0.5            
       326,  -37.82213013203,  -2.158609912319,  0.5            
       327,  -47.95504023407,  8.3619745613922,  0.5            
       328,  -42.71357904519,  3.8739671534294,  0.5            
       329,  -35.7796589092 ,  -4.117660502752,  0.5            
       330,  -30.37457728631,  -8.421669091373,  0.5            
       331,  -45.73556715942,  6.8888614562506,  0.5            
       332,  -32.44156067878,  -4.761284968886,  0.5            
       333,  -40.37009350821,  1.8621565357165,  0.5            
       334,  -38.05130418055,  -0.172384631809,  0.5            
       335,  -26.0182931372 ,  -12.00867141652,  0.5            
       336,  -20.0          ,  -18.0          ,  0.5            
       337,  -28.01975943844,  -10.05399317424,  0.5            
       338,  -22.0          ,  -16.0          ,  0.5            
       339,  -24.0          ,  -14.0          ,  0.5            
       340,  -47.923282452  ,  10.29521527614 ,  0.5            
       341,  -43.00082548769,  5.853388435497 ,  0.5            
       342,  -30.71917611606,  -6.563796754427,  0.5            
       343,  -35.88682286025,  -2.106134644632,  0.5            
       344,  -45.90755167812,  8.5794118078922,  0.5            
       345,  -40.7129503573 ,  4.0325764895765,  0.5            
       346,  -34.13284387884,  -4.363825199644,  0.5            
       347,  -43.77378020692,  7.9139338835666,  0.5            
       348,  -17.97631975306,  -17.98764552171,  0.5            
       349,  -24.0          ,  -12.0          ,  0.5            
       350,  -28.17904465215,  -8.112387922948,  0.5            
       351,  -26.01771932245,  -10.00389487099,  0.5            
       352,  -22.0          ,  -14.0          ,  0.5            
       353,  -20.0          ,  -16.0          ,  0.5            
       354,  -36.04258888899,  -0.156459878601,  0.5            
       355,  -38.33458607685,  1.7474179225258,  0.5            
       356,  -45.84288625729,  10.402908445822,  0.5            
       357,  -47.8601411719 ,  12.254978360825,  0.5            
       358,  -30.42772149256,  -4.496849001005,  0.5            
       359,  -33.977014873  ,  -2.214945829956,  0.5            
       360,  -38.64783410922,  3.6250476596341,  0.5            
       361,  -36.28285591661,  1.6946447803296,  0.5            
       362,  -24.0          ,  -10.0          ,  0.5            
       363,  -20.0          ,  -14.0          ,  0.5            
       364,  -22.0          ,  -12.0          ,  0.5            
       365,  -34.03479430183,  -0.155188236723,  0.5            
       366,  -15.95322661069,  -17.92167865784,  0.5            
       367,  -17.97184854099,  -15.98301391662,  0.5            
       368,  -28.30575869575,  -6.185472589012,  0.5            
       369,  -26.07480516247,  -8.007943262442,  0.5            
       370,  -43.85457040336,  10.160162956503,  0.5            
       371,  -36.58136239034,  3.4324559009361,  0.5            
       372,  -32.08947710673,  -2.37179717078 ,  0.5            
       373,  -45.73477950105,  12.410292679816,  0.5            
       374,  -47.82625327137,  14.206761798464,  0.5            
       375,  -34.23033822006,  1.8136991936248,  0.5            
       376,  -15.9355012988 ,  -15.86916769261,  0.5            
       377,  -32.06659663279,  -0.166406588647,  0.5            
       378,  -28.22302443886,  -4.199100907033,  0.5            
       379,  -24.0          ,  -8.0           ,  0.5            
       380,  -20.0          ,  -12.0          ,  0.5            
       381,  -17.98976030037,  -13.98343977301,  0.5            
       382,  -22.0          ,  -10.0          ,  0.5            
       383,  -26.12043833402,  -6.024253018806,  0.5            
       384,  -30.14733466757,  -2.302797408332,  0.5            
       385,  -13.936206751  ,  -17.81525266001,  0.5            
       386,  -43.71669696764,  12.298576770455,  0.5            
       387,  -47.91227533422,  16.139451316308,  0.5            
       388,  -34.54960114509,  3.691270051889 ,  0.5            
       389,  -45.5835650136 ,  14.438198876875,  0.5            
       390,  -32.24219538022,  1.9676660357457,  0.5            
       391,  -20.0          ,  -10.0          ,  0.5            
       392,  -24.0          ,  -6.0           ,  0.5            
       393,  -28.10516991281,  -2.15072238906 ,  0.5            
       394,  -15.96744699973,  -13.84358318333,  0.5            
       395,  -30.09364675659,  -0.139100971762,  0.5            
       396,  -26.10133957487,  -4.034562294761,  0.5            
       397,  -22.0          ,  -8.0           ,  0.5            
       398,  -18.0310108259 ,  -11.98293226823,  0.5            
       399,  -47.98730836764,  18.07191757414 ,  0.5            
       400,  -11.94998587272,  -17.73701554533,  0.5            
       401,  -13.8839762898 ,  -15.63263428026,  0.5            
       402,  -45.82871110589,  16.28388265882 ,  0.5            
       403,  -32.59255770868,  4.1204175186938,  0.5            
       404,  -30.22022443596,  1.9924756146137,  0.5            
       405,  -43.25812740063,  14.551853611686,  0.5            
       406,  -20.0          ,  -8.0           ,  0.5            
       407,  -28.08826869067,  -0.076451328304,  0.5            
       408,  -26.0589111812 ,  -2.028870691668,  0.5            
       409,  -22.0          ,  -6.0           ,  0.5            
       410,  -18.05997052807,  -9.978134552462,  0.5            
       411,  -16.08148443759,  -11.83198062694,  0.5            
       412,  -24.0          ,  -4.0           ,  0.5            
       413,  -9.972726377592,  -17.78590405987,  0.5            
       414,  -45.97574354474,  18.145425733282,  0.5            
       415,  -13.90561933478,  -13.54206842461,  0.5            
       416,  -11.9103107075 ,  -15.39880171834,  0.5            
       417,  -30.49814926401,  4.0815546409538,  0.5            
       418,  -43.92093941643,  17.294398030315,  0.5            
       419,  -28.17266418922,  1.9884116437136,  0.5            
       420,  -20.0          ,  -6.0           ,  0.5            
       421,  -22.0          ,  -4.0           ,  0.5            
       422,  -24.00312140975,  -1.998943790103,  0.5            
       423,  -16.14616229089,  -9.806774160017,  0.5            
       424,  -18.07023815274,  -7.974547084156,  0.5            
       425,  -26.05216967719,  -0.010996152261,  0.5            
       426,  -7.975058915716,  -17.82523283112,  0.5            
       427,  -14.2139085303 ,  -11.5205007212 ,  0.5            
       428,  -9.941949264107,  -15.5896681205 ,  0.5            
       429,  -41.4367933141 ,  15.476047734552,  0.5            
       430,  -30.73296886232,  6.0587681490944,  0.5            
       431,  -28.3148691609 ,  4.0068454996531,  0.5            
       432,  -22.0          ,  -2.0           ,  0.5            
       433,  -26.08719997012,  2.000549776052 ,  0.5            
       434,  -20.0          ,  -4.0           ,  0.5            
       435,  -24.02013623324,  0.0031262521815,  0.5            
       436,  -16.1611956489 ,  -7.789275539601,  0.5            
       437,  -18.07376220535,  -5.974599974907,  0.5            
       438,  -5.975196953708,  -17.8330804314 ,  0.5            
       439,  -14.31879123337,  -9.472592270954,  0.5            
       440,  -41.92392431292,  17.692509458024,  0.5            
       441,  -7.943999863192,  -15.66021897398,  0.5            
       442,  -39.65731036627,  16.206854179464,  0.5            
       443,  -28.38119999274,  5.9883929525093,  0.5            
       444,  -30.35298366661,  7.9882926567085,  0.5            
       445,  -20.0          ,  -2.0           ,  0.5            
       446,  -18.07782819883,  -3.978632544559,  0.5            
       447,  -24.03972419136,  2.0028220903401,  0.5            
       448,  -22.0          ,  2.984279490E-13,  0.5            
       449,  -26.14248983914,  3.9986999491979,  0.5            
       450,  -16.16432009517,  -5.791030701431,  0.5            
       451,  -3.975431440816,  -17.83362851627,  0.5            
       452,  -14.32896608178,  -7.453264257592,  0.5            
       453,  -39.98167121788,  18.070890427021,  0.5            
       454,  -5.949218040906,  -15.66615535259,  0.5            
       455,  -37.92963827738,  16.608720843604,  0.5            
       456,  -28.23401429303,  7.9567468947692,  0.5            
       457,  -36.24926773728,  16.643219072883,  0.5            
       458,  -30.10534528644,  9.9744785872711,  0.5            
       459,  -22.0          ,  2.0000000000003,  0.5            
       460,  -20.0          ,  2.984279490E-13,  0.5            
       461,  -26.16134827118,  5.9839079459136,  0.5            
       462,  -16.16794815228,  -3.814879716074,  0.5            
       463,  -24.05963585796,  4.0011692436826,  0.5            
       464,  -18.0867380578 ,  -1.986550617671,  0.5            
       465,  -38.03394442908,  18.292356156127,  0.5            
       466,  -1.977303557683,  -17.83359185955,  0.5            
       467,  -14.32982037903,  -5.457569759911,  0.5            
       468,  -3.951781328884,  -15.66677024686,  0.5            
       469,  -34.61614367445,  16.325214723468,  0.5            
       470,  -36.08534461471,  18.315845519113,  0.5            
       471,  -28.0940557718 ,  9.9569430776666,  0.5            
       472,  -30.10522045977,  11.941063328931,  0.5            
       473,  -18.09910154117,  0.0051434709712,  0.5            
       474,  -26.10911511887,  7.9689299211956,  0.5            
       475,  -16.18280009397,  -1.871874820526,  0.5            
       476,  -24.06418623822,  5.9962313462157,  0.5            
       477,  -22.0          ,  4.0000000000003,  0.5            
       478,  -20.0          ,  2.0000000000003,  0.5            
       479,  -31.63208283181,  13.902916870232,  0.5            
       480,  0.0202557467567,  -17.83368909754,  0.5            
       481,  -14.33039662316,  -3.490330007935,  0.5            
       482,  -1.95465716503 ,  -15.66675466078,  0.5            
       483,  -33.11499737851,  15.823604881614,  0.5            
       484,  -34.13347325959,  18.155047686631,  0.5            
       485,  -31.51497182791,  15.827560532951,  0.5            
       486,  -28.03577492708,  11.956923549467,  0.5            
       487,  -29.85081375974,  13.91756228971 ,  0.5            
       488,  -22.0          ,  6.0000000000002,  0.5            
       489,  -20.0          ,  4.0000000000003,  0.5            
       490,  -18.09955355683,  1.9978599145669,  0.5            
       491,  -24.04608169791,  7.9922676385519,  0.5            
       492,  -26.04972168466,  9.9702227300256,  0.5            
       493,  -16.21711788995,  0.0506390379061,  0.5            
       494,  2.0124648855717,  -17.83418917424,  0.5            
       495,  -14.33440215456,  -1.582642507512,  0.5            
       496,  0.0423108866813,  -15.66663722282,  0.5            
       497,  -32.10696840811,  17.838733108272,  0.5            
       498,  -29.79663924924,  15.973043766245,  0.5            
       499,  -27.93972547223,  13.965681078483,  0.5            
       500,  -20.0          ,  6.0000000000002,  0.5            
       501,  -24.02311222309,  9.9929459863701,  0.5            
       502,  -22.0          ,  8.0000000000002,  0.5            
       503,  -16.21768180507,  1.9698807451329,  0.5            
       504,  -26.01506959287,  11.976102824768,  0.5            
       505,  -18.08726165508,  3.9898749279543,  0.5            
       506,  3.9940149326954,  -17.83545368854,  0.5            
       507,  -14.40761271   ,  0.1729221358017,  0.5            
       508,  2.0340125874176,  -15.666224819  ,  0.5            
       509,  -14.4080487909 ,  1.8498335314829,  0.5            
       510,  -30.00176259376,  17.989048700516,  0.5            
       511,  -27.91708442421,  15.990064520589,  0.5            
       512,  -18.07631063726,  5.9837069190754,  0.5            
       513,  -24.00702854752,  11.994738660751,  0.5            
       514,  -16.18350253075,  3.8927936104783,  0.5            
       515,  -22.0          ,  10.0           ,  0.5            
       516,  -20.0          ,  8.0000000000002,  0.5            
       517,  -25.98144603002,  13.984956686256,  0.5            
       518,  5.9475119446146,  -17.83883604591,  0.5            
       519,  4.0151153191055,  -15.66540008191,  0.5            
       520,  -14.3348654287 ,  3.6028626753489,  0.5            
       521,  -27.98278318767,  18.002084652061,  0.5            
       522,  -16.16672716955,  5.8436554450592,  0.5            
       523,  -23.99489498047,  13.996945277401,  0.5            
       524,  -22.0          ,  12.0           ,  0.5            
       525,  -18.06489795998,  7.9831969525197,  0.5            
       526,  -20.0          ,  10.000000000001,  0.5            
       527,  -25.9729757803 ,  15.996582033616,  0.5            
       528,  7.8502594054949,  -17.85268222829,  0.5            
       529,  5.9690862933299,  -15.66422521665,  0.5            
       530,  -14.33034683843,  5.5170593162067,  0.5            
       531,  9.6635333942568,  -17.91090450481,  0.5            
       532,  -22.00000000001,  14.0           ,  0.5            
       533,  -23.99125350718,  15.999595020521,  0.5            
       534,  -16.15439196039,  7.8366110321965,  0.5            
       535,  -18.03630934104,  9.9906098591096,  0.5            
       536,  -20.0          ,  12.000000000001,  0.5            
       537,  -25.99087750255,  18.0015644485  ,  0.5            
       538,  7.87449270334  ,  -15.66588807167,  0.5            
       539,  -14.32353465641,  7.5007663263594,  0.5            
       540,  9.6752250047404,  -15.74832363118,  0.5            
       541,  11.325932251253,  -17.9752479698 ,  0.5            
       542,  -23.9956359153 ,  18.000753685652,  0.5            
       543,  -16.10634469869,  9.8685877179153,  0.5            
       544,  -22.0          ,  16.000000000001,  0.5            
       545,  -20.00000000001,  14.000000000001,  0.5            
       546,  -17.9724586971 ,  11.996432629607,  0.5            
       547,  12.898438363611,  -18.10309304538,  0.5            
       548,  -14.27276227906,  9.5393687482795,  0.5            
       549,  11.416044647322,  -16.09514064078,  0.5            
       550,  -20.0          ,  16.000000000002,  0.5            
       551,  -17.91146627627,  13.989790472423,  0.5            
       552,  -22.0          ,  18.0           ,  0.5            
       553,  -15.95097740962,  11.899425680032,  0.5            
       554,  14.531753293283,  -18.25809135442,  0.5            
       555,  13.155963111895,  -16.30008935787,  0.5            
       556,  11.723470646284,  -14.41098550544,  0.5            
       557,  -13.98876647074,  11.589427909156,  0.5            
       558,  16.339164739147,  -18.31050672066,  0.5            
       559,  -17.92667748509,  15.98229565626 ,  0.5            
       560,  -15.75581272693,  13.897550696469,  0.5            
       561,  -20.0          ,  18.0           ,  0.5            
       562,  14.861140892795,  -16.46781398934,  0.5            
       563,  13.449279270963,  -14.52801676606,  0.5            
       564,  16.591327417475,  -16.59721225676,  0.5            
       565,  18.232559587888,  -18.28460461332,  0.5            
       566,  -17.96568358577,  17.98736738784 ,  0.5            
       567,  -15.83689555596,  15.901742374925,  0.5            
       568,  -13.37835668946,  13.603092837722,  0.5            
       569,  15.156965122054,  -14.68970878483,  0.5            
       570,  13.788296445236,  -12.76423013953,  0.5            
       571,  18.413507971886,  -16.57206414217,  0.5            
       572,  16.843049773427,  -14.86043739782,  0.5            
       573,  -15.93673960897,  17.951284668293,  0.5            
       574,  20.149444868069,  -18.17453968667,  0.5            
       575,  -13.73329494221,  15.851996026751,  0.5            
       576,  15.55045187193 ,  -12.91528359087,  0.5            
       577,  18.525346971374,  -14.96019332521,  0.5            
       578,  -11.32400945858,  14.225986532127,  0.5            
       579,  14.232040822263,  -10.96279543841,  0.5            
       580,  22.084487665293,  -18.11024920802,  0.5            
       581,  20.261432009445,  -16.29952272492,  0.5            
       582,  17.274721014632,  -13.11924580235,  0.5            
       583,  -13.89398143219,  17.949894409791,  0.5            
       584,  -11.67275494743,  16.079035015922,  0.5            
       585,  15.972119284473,  -11.13501101336,  0.5            
       586,  18.975273372349,  -13.34362292577,  0.5            
       587,  -9.284103512986,  14.337079664995,  0.5            
       588,  14.397843101255,  -9.082558613353,  0.5            
       589,  24.040946666162,  -18.08677929751,  0.5            
       590,  22.143338252061,  -16.20836670839,  0.5            
       591,  20.355363812512,  -14.29221048666,  0.5            
       592,  -11.86213606948,  18.02863039956 ,  0.5            
       593,  17.777918238111,  -11.37992618523,  0.5            
       594,  -9.592448242223,  16.204889382185,  0.5            
       595,  16.206187234043,  -9.307934503803,  0.5            
       596,  -7.24655744818 ,  14.368777991907,  0.5            
       597,  14.441518124028,  -7.15700521456 ,  0.5            
       598,  24.095799447637,  -16.17538572804,  0.5            
       599,  22.172816269932,  -14.32623365422,  0.5            
       600,  26.051684968569,  -18.08615211852,  0.5            
       601,  19.654316237979,  -11.74472793855,  0.5            
       602,  -9.823800491138,  18.090686473168,  0.5            
       603,  18.055385561553,  -9.58399102754 ,  0.5            
       604,  -7.550368515963,  16.236085866049,  0.5            
       605,  16.285008868439,  -7.449324168825,  0.5            
       606,  -5.20728316998 ,  14.368168202757,  0.5            
       607,  14.465561484785,  -5.147642192769,  0.5            
       608,  24.070178529504,  -14.26886218376,  0.5            
       609,  26.143947336449,  -16.1833890033 ,  0.5            
       610,  21.61195614828 ,  -12.37253107538,  0.5            
       611,  19.930587199129,  -9.915074809872,  0.5            
       612,  28.098694089178,  -18.03972123702,  0.5            
       613,  -7.80154703599 ,  18.11416071428 ,  0.5            
       614,  18.14960404027 ,  -7.728184158813,  0.5            
       615,  -5.544416398091,  16.240087323393,  0.5            
       616,  16.317086427488,  -5.586928447557,  0.5            
       617,  14.622930992894,  -2.994427669323,  0.5            
       618,  -3.139296503035,  14.377310345749,  0.5            
       619,  26.233602781495,  -14.36851732606,  0.5            
       620,  23.76767554468 ,  -12.35084342184,  0.5            
       621,  21.806829439136,  -10.26692389315,  0.5            
       622,  20.009643730436,  -7.987228625872,  0.5            
       623,  28.178321753271,  -16.22236446849,  0.5            
       624,  -5.811551565103,  18.122441828869,  0.5            
       625,  30.12476782891 ,  -17.87079481667,  0.5            
       626,  18.193741537526,  -5.850546962369,  0.5            
       627,  16.442596823474,  -3.856819519538,  0.5            
       628,  -3.605664151683,  16.251702565263,  0.5            
       629,  25.813207065255,  -12.49659997578,  0.5            
       630,  23.693998270252,  -10.41599643314,  0.5            
       631,  21.858780397794,  -8.233321613824,  0.5            
       632,  14.467794424953,  -0.821718379157,  0.5            
       633,  -0.945931125883,  14.534063667912,  0.5            
       634,  20.039447927508,  -6.038110045522,  0.5            
       635,  16.440714751931,  -2.144097558682,  0.5            
       636,  32.120267013366,  -17.93959614948,  0.5            
       637,  18.249519567952,  -3.973678996014,  0.5            
       638,  -3.866304795026,  18.14316385203 ,  0.5            
       639,  -1.832316888012,  16.374291851043,  0.5            
       640,  25.589677613146,  -10.57048783942,  0.5            
       641,  23.707514977235,  -8.422261273178,  0.5            
       642,  1.2477420054296,  14.379980695474,  0.5            
       643,  21.876783545864,  -6.235662652795,  0.5            
       644,  14.457774102525,  1.2280250647181,  0.5            
       645,  34.160622537954,  -17.77483577805,  0.5            
       646,  16.317463208624,  -0.385810248368,  0.5            
       647,  20.061734279653,  -4.087768200234,  0.5            
       648,  -0.096661161595,  16.3746262297  ,  0.5            
       649,  18.246209246437,  -2.079297597549,  0.5            
       650,  -1.946576458092,  18.192530232906,  0.5            
       651,  25.563612758506,  -8.611181641796,  0.5            
       652,  23.717119031654,  -6.433666715404,  0.5            
       653,  36.16421621861 ,  -17.4319820286 ,  0.5            
       654,  21.886178997258,  -4.248663517749,  0.5            
       655,  3.3476731661673,  14.372364211699,  0.5            
       656,  14.460625164933,  3.2270356142398,  0.5            
       657,  1.687331017637 ,  16.25375261918 ,  0.5            
       658,  16.30513671724 ,  1.5294130100164,  0.5            
       659,  18.188961958932,  -0.182029914213,  0.5            
       660,  20.059942378767,  -2.128345143416,  0.5            
       661,  -0.022646387042,  18.193089292474,  0.5            
       662,  25.56656924726 ,  -6.639924454398,  0.5            
       663,  23.722092356368,  -4.443822109441,  0.5            
       664,  21.885552810321,  -2.26376641501 ,  0.5            
       665,  5.4294349187222,  14.371523119801,  0.5            
       666,  14.461167657669,  5.1962906659879,  0.5            
       667,  3.6644706955434,  16.240607431553,  0.5            
       668,  16.309258922077,  3.4817240927977,  0.5            
       669,  1.9055570876472,  18.143767883884,  0.5            
       670,  18.164128627882,  1.7407705141636,  0.5            
       671,  20.036017940325,  -0.170495735921,  0.5            
       672,  38.125293679028,  -17.61829253725,  0.5            
       673,  25.568359550837,  -4.656948538822,  0.5            
       674,  23.72257833577 ,  -2.45586793964 ,  0.5            
       675,  21.876026109257,  -0.279589138462,  0.5            
       676,  7.5766983388038,  14.351899417203,  0.5            
       677,  14.452873923869,  7.1227854049927,  0.5            
       678,  5.7159709838235,  16.231147477539,  0.5            
       679,  16.313319618592,  5.4373455751002,  0.5            
       680,  3.8758465041218,  18.119595208507,  0.5            
       681,  18.162762714048,  3.6905277004633,  0.5            
       682,  20.018970569538,  1.7968680103204,  0.5            
       683,  40.05916934402 ,  -17.90874577965,  0.5            
       684,  25.568503794913,  -2.672218663866,  0.5            
       685,  38.514839294222,  -15.46736979399,  0.5            
       686,  23.719284416983,  -0.46602209851 ,  0.5            
       687,  21.867076522972,  1.7081097677035,  0.5            
       688,  9.8181200307243,  14.277527656724,  0.5            
       689,  14.404811927719,  8.9921744306374,  0.5            
       690,  7.8521330271275,  16.195542782711,  0.5            
       691,  16.306311265656,  7.3605128114033,  0.5            
       692,  5.8931384497977,  18.105515560445,  0.5            
       693,  18.16656001467 ,  5.6616651059739,  0.5            
       694,  20.01389262073 ,  3.7727250724464,  0.5            
       695,  41.966996121665,  -17.97533274007,  0.5            
       696,  14.280658045724,  10.72631667771 ,  0.5            
       697,  25.567478343423,  -0.684685851318,  0.5            
       698,  23.715112825462,  1.525320721826 ,  0.5            
       699,  21.86264527978 ,  3.7008431703146,  0.5            
       700,  13.612301672061,  12.372549677445,  0.5            
       701,  16.247231851264,  9.2437023388178,  0.5            
       702,  7.9589729427072,  18.077799037022,  0.5            
       703,  18.16218978775 ,  7.6249103892022,  0.5            
       704,  20.014757387108,  5.7719742408673,  0.5            
       705,  43.87009182177 ,  -17.89158462737,  0.5            
       706,  41.06682508018 ,  -15.90550842654,  0.5            
       707,  10.01365256964 ,  16.11097807786 ,  0.5            
       708,  39.121259052347,  -13.43983831242,  0.5            
       709,  12.259582064598,  13.981829813594,  0.5            
       710,  25.565895591351,  1.3036747888807,  0.5            
       711,  16.035363622145,  11.081483496642,  0.5            
       712,  23.712085697672,  3.5209219211029,  0.5            
       713,  21.861023956173,  5.710549903185 ,  0.5            
       714,  18.107200513266,  9.5687371737103,  0.5            
       715,  20.009816119746,  7.794381424312 ,  0.5            
       716,  45.905407197471,  -17.92346582409,  0.5            
       717,  10.020731481327,  18.03625525328 ,  0.5            
       718,  43.544697798146,  -15.83497443499,  0.5            
       719,  41.32996504662 ,  -13.73978548062,  0.5            
       720,  39.442840002953,  -11.37903325785,  0.5            
       721,  15.468288989467,  12.835706214321,  0.5            
       722,  12.155387003594,  16.045729367701,  0.5            
       723,  25.564311692555,  3.2948705721663,  0.5            
       724,  23.71004318892 ,  5.5270384769862,  0.5            
       725,  17.852528978933,  11.369903501072,  0.5            
       726,  21.856156891529,  7.7433145001596,  0.5            
       727,  14.554745258915,  14.482857211424,  0.5            
       728,  19.963149988085,  9.8823919931349,  0.5            
       729,  47.95119972558 ,  -17.9589262809 ,  0.5            
       730,  45.779324597371,  -15.87716002215,  0.5            
       731,  43.554474758648,  -13.80839198903,  0.5            
       732,  41.530777305078,  -11.63945718511,  0.5            
       733,  39.506807968087,  -9.322914972232,  0.5            
       734,  12.069656202388,  18.029071362441,  0.5            
       735,  25.562710492838,  5.2914584376408,  0.5            
       736,  14.216681765449,  16.272447116651,  0.5            
       737,  17.584248459313,  13.159926027439,  0.5            
       738,  23.708863706237,  7.5514639821707,  0.5            
       739,  21.833718062597,  9.8119804237643,  0.5            
       740,  16.497072797577,  14.809481554852,  0.5            
       741,  19.737445226626,  12.100795876126,  0.5            
       742,  47.90639114589 ,  -15.93472492885,  0.5            
       743,  45.75377379067 ,  -13.85530527834,  0.5            
       744,  43.650853941298,  -11.77045955889,  0.5            
       745,  41.592943044691,  -9.584919918022,  0.5            
       746,  39.503530413823,  -7.298529855055,  0.5            
       747,  14.089530029392,  18.128320168989,  0.5            
       748,  25.562499204749,  7.299870144361 ,  0.5            
       749,  16.268036255888,  16.499400028711,  0.5            
       750,  23.728223247954,  9.5969860509844,  0.5            
       751,  21.860319191662,  11.858570155124,  0.5            
       752,  18.359172936073,  14.68569696354 ,  0.5            
       753,  20.164951641073,  14.14829247205 ,  0.5            
       754,  47.890534888969,  -13.92242711157,  0.5            
       755,  45.78189156671 ,  -11.8492685113 ,  0.5            
       756,  41.596344212408,  -7.604271341715,  0.5            
       757,  43.692889965225,  -9.753681404654,  0.5            
       758,  39.510873983412,  -5.2504664932  ,  0.5            
       759,  16.122622765571,  18.23452860895 ,  0.5            
       760,  25.586974188514,  9.3269552654997,  0.5            
       761,  18.281279221822,  16.438297813432,  0.5            
       762,  23.863309043473,  11.649305647667,  0.5            
       763,  22.130370620054,  13.879007400354,  0.5            
       764,  43.706075429192,  -7.803677090701,  0.5            
       765,  41.607562099946,  -5.69632536209 ,  0.5            
       766,  20.273078281662,  16.139316540708,  0.5            
       767,  47.896346179086,  -11.92242051283,  0.5            
       768,  45.802706119306,  -9.854340473756,  0.5            
       769,  18.158678067124,  18.213882780349,  0.5            
       770,  39.684149702738,  -3.099172515793,  0.5            
       771,  25.763222307501,  11.373226240495,  0.5            
       772,  24.21252926741 ,  13.685627094287,  0.5            
       773,  41.745921466049,  -3.970252009876,  0.5            
       774,  43.735724388261,  -5.906579158737,  0.5            
       775,  22.290646596173,  15.90344046333 ,  0.5            
       776,  45.816427232054,  -7.900615346032,  0.5            
       777,  20.183622768288,  18.079111251535,  0.5            
       778,  47.905164849346,  -9.929728388492,  0.5            
       779,  39.513422747154,  -0.944429284909,  0.5            
       780,  41.747555393194,  -2.279790681549,  0.5            
       781,  26.31464008129 ,  13.386068978494,  0.5            
       782,  43.799175386421,  -4.056039274066,  0.5            
       783,  24.472504427951,  15.712002933042,  0.5            
       784,  45.837667168686,  -5.968310635128,  0.5            
       785,  22.204259732133,  17.94507059519 ,  0.5            
       786,  47.914054708271,  -7.956108078246,  0.5            
       787,  39.504784374051,  1.090254536563 ,  0.5            
       788,  41.611614725754,  -0.548464508038,  0.5            
       789,  43.799474117738,  -2.199955288965,  0.5            
       790,  26.969988027776,  15.421637891587,  0.5            
       791,  45.863415016199,  -4.06017290716 ,  0.5            
       792,  24.255904197533,  17.817861212591,  0.5            
       793,  47.924774098943,  -5.990216096344,  0.5            
       794,  39.510911992985,  3.0882463821821,  0.5            
       795,  41.600143832474,  1.3491855440608,  0.5            
       796,  43.737295649795,  -0.342279507664,  0.5            
       797,  45.862211316038,  -2.143731956121,  0.5            
       798,  47.933832821836,  -4.034797638177,  0.5            
       799,  26.249821980943,  17.753915242077,  0.5            
       800,  39.5147525046  ,  5.0851213490699,  0.5            
       801,  41.605118662376,  3.3046495598468,  0.5            
       802,  43.70943552355 ,  1.5557826236619,  0.5            
       803,  29.131552334486,  16.302722011805,  0.5            
       804,  45.835287331069,  -0.227622245827,  0.5            
       805,  47.932439910206,  -2.074653736   ,  0.5            
       806,  39.510681078804,  7.0950720741224,  0.5            
       807,  28.07849404971 ,  18.063075245027,  0.5            
       808,  41.60757690004 ,  5.2985223020931,  0.5            
       809,  43.704709814668,  3.5018301648672,  0.5            
       810,  45.815121399995,  1.7118514398923,  0.5            
       811,  31.474624054544,  16.4857918986  ,  0.5            
       812,  47.921511125936,  -0.114459466318,  0.5            
       813,  39.464377771212,  9.1200279141972,  0.5            
       814,  29.922157284347,  18.209840576152,  0.5            
       815,  41.596743640131,  7.3306417960545,  0.5            
       816,  43.700452134104,  5.4944240393042,  0.5            
       817,  45.805399104164,  3.6741407258418,  0.5            
       818,  47.911136353657,  1.8568982034559,  0.5            
       819,  33.679206450203,  16.465461604318,  0.5            
       820,  31.832569156273,  18.206711757511,  0.5            
       821,  39.225024046873,  11.172789778421,  0.5            
       822,  41.534926274598,  9.3958700756881,  0.5            
       823,  43.682738981375,  7.534244705288 ,  0.5            
       824,  45.797138122496,  5.6667050553561,  0.5            
       825,  35.731579431767,  16.092678118943,  0.5            
       826,  47.903969869457,  3.8380585609085,  0.5            
       827,  33.905253891228,  18.188341702523,  0.5            
       828,  38.547224707607,  13.221448360427,  0.5            
       829,  41.25784482145 ,  11.460915219418,  0.5            
       830,  43.624733383952,  9.6283659764704,  0.5            
       831,  45.779789455201,  7.6867102970002,  0.5            
       832,  47.897582091826,  5.8325587874677,  0.5            
       833,  35.983898860018,  17.990631248948,  0.5            
       834,  37.775618045768,  15.316799512337,  0.5            
       835,  40.555517201577,  13.520970852848,  0.5            
       836,  43.485316364705,  11.812542347126,  0.5            
       837,  45.743278504927,  9.7220630241738,  0.5            
       838,  47.887292791557,  7.836394086542 ,  0.5            
       839,  38.015345114413,  17.727052153748,  0.5            
       840,  42.427760757011,  13.788557727613,  0.5            
       841,  40.077825894139,  15.634859041502,  0.5            
       842,  45.773933221806,  11.74549273426 ,  0.5            
       843,  44.231005520465,  13.870186368093,  0.5            
       844,  47.877434724832,  9.8400565011446,  0.5            
       845,  40.023092505834,  17.785868271543,  0.5            
       846,  42.178954155741,  15.824825988767,  0.5            
       847,  47.90787625002 ,  11.848032918526,  0.5            
       848,  46.056448600986,  13.802285608434,  0.5            
       849,  42.069934268648,  17.893826022746,  0.5            
       850,  44.1735969024  ,  15.899034641163,  0.5            
       851,  48.007930676606,  13.878087469197,  0.5            
       852,  44.083588742042,  17.940907333123,  0.5            
       853,  46.123512824172,  15.89431567391 ,  0.5            
       854,  46.069976326948,  17.953671149924,  0.5            
       855,  48.051402399185,  15.928924717541,  0.5            
       856,  48.033940441259,  17.972425979032,  0.5            
*ELEMENT,TYPE=S3
        11,       265,       262,       266
        30,       276,       279,       255
        60,       294,       299,       306
        64,       306,       308,        59
        79,       309,       319,       251
        99,       346,       329,       248
       113,       344,       331,       347
       177,       386,       228,       405
       194,       414,       402,       418
       245,       457,       455,       231
       262,       479,       233,       234
       292,       485,       497,       483
       310,       509,       507,       147
       348,       547,       541,       102
       369,       556,       177,       178
       388,       578,       568,       153
       405,       591,       586,       577
       424,       591,       599,       610
       457,       627,       635,       617
       465,       195,       196,       623
       473,       648,       639,       633
       544,       683,       695,       706
       545,       696,       700,       165
       593,       737,       725,       741
       604,       752,       740,       737
       638,       773,       780,       770
       667,       803,       790,       211
       682,       814,       807,       803
       705,       825,       214,       834
       723,       843,       840,       836
*ELEMENT,TYPE=S4
         1,       259,        70,        71,        72
         2,       260,       259,        72,        73
         3,       261,        69,        70,       259
         4,       262,       260,        73,        74
         5,       259,       260,       263,       261
         6,       264,        68,        69,       261
         7,       260,       262,       265,       263
         8,        74,        75,       266,       262
         9,       264,       267,        67,        68
        10,       261,       263,       268,       264
        12,       268,       263,       265,       269
        13,        66,        67,       267,       270
        14,       272,       266,        75,        76
        15,       268,       271,       267,       264
        16,       269,       265,       266,       257
        17,       268,       269,       273,       271
        18,        65,        66,       270,       274
        19,       270,       267,       271,       275
        20,       276,       272,        76,        77
        21,       266,       272,       256,       257
        22,       271,       273,       277,       275
        23,       269,       257,       258,       273
        24,       274,       270,       275,       278
        25,       280,        64,        65,       274
        26,       279,       276,        77,        78
        27,       255,       256,       272,       276
        28,       258,       243,       277,       273
        29,       277,       281,       278,       275
        31,       282,       279,        78,        79
        32,       283,       280,       274,       278
        33,       284,        63,        64,       280
        34,       243,       244,       281,       277
        35,       255,       279,       282,       254
        36,       286,       283,       278,       281
        37,        80,       287,       282,        79
        38,       284,       285,        62,        63
        39,       288,       284,       280,       283
        40,       286,       281,       244,       245
        41,       287,       253,       254,       282
        42,        81,       289,       287,        80
        43,       285,       290,        61,        62
        44,       288,       291,       285,       284
        45,       292,       288,       283,       286
        46,       287,       289,       293,       253
        47,        61,       290,       294,        60
        48,       289,        81,        82,       296
        49,       291,       297,       290,       285
        50,       295,       292,       286,       245
        51,       292,       298,       291,       288
        52,       290,       297,       299,       294
        53,       293,       289,       296,       303
        54,        60,       294,       306,        59
        55,        82,        83,       302,       296
        56,       293,       305,       252,       253
        57,       295,       245,       246,       304
        58,       298,       292,       295,       300
        59,       298,       301,       297,       291
        61,       297,       301,       307,       299
        62,       300,       295,       304,       310
        63,       305,       293,       303,       314
        65,        83,        84,       313,       302
        66,       296,       302,       311,       303
        67,       301,       298,       300,       312
        68,       305,       309,       251,       252
        69,       317,        58,        59,       308
        70,       316,       304,       246,       247
        71,       299,       307,       315,       306
        72,       301,       312,       318,       307
        73,       312,       300,       310,       321
        74,       324,       313,        84,        85
        75,       302,       313,       323,       311
        76,       322,       314,       303,       311
        77,       314,       325,       309,       305
        78,       306,       315,       320,       308
        80,       317,       327,        57,        58
        81,       326,       310,       304,       316
        82,       248,       329,       316,       247
        83,       250,       251,       319,       330
        84,       307,       318,       328,       315
        85,       308,       320,       331,       317
        86,       321,       333,       318,       312
        87,       325,       337,       319,       309
        88,        85,        86,       336,       324
        89,       338,       323,       313,       324
        90,       339,       322,       311,       323
        91,       314,       322,       335,       325
        92,       321,       310,       326,       334
        93,       327,       340,        56,        57
        94,       249,       250,       330,       342
        95,       315,       328,       341,       320
        96,       329,       343,       326,       316
        97,       331,       344,       327,       317
        98,       332,       346,       248,       249
       100,       333,       345,       328,       318
       101,       330,       319,       337,       350
       102,       320,       341,       347,       331
       103,       334,       355,       333,       321
       104,       249,       342,       358,       332
       105,        86,        87,       348,       336
       106,       324,       336,       353,       338
       107,       352,       339,       323,       338
       108,       322,       339,       349,       335
       109,       325,       335,       351,       337
       110,       357,        55,        56,       340
       111,       343,       354,       334,       326
       112,       344,       356,       340,       327
       114,       346,       359,       343,       329
       115,       345,       241,       341,       328
       116,       342,       330,       350,       368
       117,       333,       355,       360,       345
       118,       334,       354,       361,       355
       119,       366,       348,        87,        88
       120,       336,       348,       367,       353
       121,       338,       353,       363,       352
       122,       364,       349,       339,       352
       123,       335,       349,       362,       351
       124,       369,       350,       337,       351
       125,       356,       344,       347,       370
       126,       346,       332,       372,       359
       127,       373,       357,       340,       356
       128,       374,        54,        55,       357
       129,       359,       365,       354,       343
       130,       241,       242,       347,       341
       131,       372,       332,       358,       384
       132,       355,       361,       371,       360
       133,       378,       358,       342,       368
       134,       360,       240,       241,       345
       135,       354,       365,       375,       361
       136,       376,       367,       348,       366
       137,       353,       367,       381,       363
       138,       352,       363,       380,       364
       139,       382,       362,       349,       364
       140,       379,       369,       351,       362
       141,       383,       368,       350,       369
       142,       385,       366,        88,        89
       143,       370,       347,       242,       227
       144,       370,       386,       373,       356
       145,        53,        54,       374,       387
       146,       365,       359,       372,       377
       147,       240,       360,       371,       239
       148,       389,       374,       357,       373
       149,       371,       361,       375,       388
       150,       393,       384,       358,       378
       151,       375,       365,       377,       390
       152,       394,       381,       367,       376
       153,       363,       381,       398,       380
       154,       364,       380,       391,       382
       155,       397,       379,       362,       382
       156,       392,       383,       369,       379
       157,       368,       383,       396,       378
       158,       372,       384,       395,       377
       159,       400,       385,        89,        90
       160,       401,       376,       366,       385
       161,       227,       228,       386,       370
       162,       387,       399,        52,        53
       163,       238,       239,       371,       388
       164,       387,       374,       389,       402
       165,       386,       405,       389,       373
       166,       388,       375,       390,       403
       167,       390,       377,       395,       404
       168,       411,       398,       381,       394
       169,       380,       398,       410,       391
       170,       406,       397,       382,       391
       171,       409,       392,       379,       397
       172,       383,       392,       412,       396
       173,       378,       396,       408,       393
       174,       384,       393,       407,       395
       175,       399,        50,        51,        52
       176,        90,        91,       413,       400
       178,       415,       394,       376,       401
       179,       416,       401,       385,       400
       180,       402,       414,       399,       387
       181,       403,       237,       238,       388
       182,       403,       390,       404,       417
       183,       402,       389,       405,       418
       184,       404,       395,       407,       419
       185,       423,       410,       398,       411
       186,       424,       406,       391,       410
       187,       420,       409,       397,       406
       188,       421,       412,       392,       409
       189,       396,       412,       422,       408
       190,       393,       408,       425,       407
       191,        91,        92,       426,       413
       192,       414,        49,        50,       399
       193,       427,       411,       394,       415
       195,       228,       229,       429,       405
       196,       400,       413,       428,       416
       197,       189,       415,       401,       416
       198,       237,       403,       417,       430
       199,       417,       404,       419,       431
       200,       419,       407,       425,       433
       201,       436,       424,       410,       423
       202,       437,       420,       406,       424
       203,       409,       420,       434,       421
       204,       432,       422,       412,       421
       205,       408,       422,       435,       425
       206,        49,       414,       418,        48
       207,        92,        93,       438,       426
       208,       439,       423,       411,       427
       209,       418,       405,       429,       440
       210,       413,       426,       441,       428
       211,       141,       427,       415,       189
       212,       416,       428,       188,       189
       213,       229,       230,       442,       429
       214,       430,       444,       236,       237
       215,       417,       431,       443,       430
       216,       431,       419,       433,       449
       217,       450,       437,       424,       436
       218,       420,       437,       446,       434
       219,       447,       433,       425,       435
       220,       421,       434,       445,       432
       221,       448,       435,       422,       432
       222,        48,       418,       440,        47
       223,        93,        94,       451,       438
       224,       439,       452,       436,       423
       225,       426,       438,       454,       441
       226,       142,       439,       427,       141
       227,       428,       441,       187,       188
       228,       429,       442,       453,       440
       229,       231,       455,       442,       230
       230,       430,       443,       456,       444
       231,       431,       449,       461,       443
       232,       444,       458,       235,       236
       233,       463,       449,       433,       447
       234,       462,       446,       437,       450
       235,       434,       446,       464,       445
       236,       459,       447,       435,       448
       237,       432,       445,       460,       448
       238,       466,       451,        94,        95
       239,       452,       467,       450,       436
       240,       440,       453,        46,        47
       241,       438,       451,       468,       454
       242,       142,       143,       452,       439
       243,       441,       454,       186,       187
       244,       465,       453,       442,       455
       246,       231,       232,       469,       457
       247,       234,       235,       458,       472
       248,       443,       461,       474,       456
       249,       444,       456,       471,       458
       250,       476,       461,       449,       463
       251,       477,       463,       447,       459
       252,       475,       464,       446,       462
       253,       478,       459,       448,       460
       254,       445,       464,       473,       460
       255,       480,       466,        95,        96
       256,       453,       465,        45,        46
       257,       467,       481,       462,       450
       258,       470,       465,       455,       457
       259,       451,       466,       482,       468
       260,       143,       144,       467,       452
       261,       454,       468,       185,       186
       263,       233,       483,       469,       232
       264,       457,       469,       484,       470
       265,       479,       234,       472,       487
       266,       456,       474,       492,       471
       267,       458,       471,       486,       472
       268,       491,       474,       461,       476
       269,       488,       476,       463,       477
       270,       489,       477,       459,       478
       271,       493,       473,       464,       475
       272,       490,       478,       460,       473
       273,       465,       470,        44,        45
       274,       494,       480,        96,        97
       275,       481,       495,       475,       462
       276,       483,       233,       479,       485
       277,       466,       480,       496,       482
       278,       144,       145,       481,       467
       279,       468,       482,       184,       185
       280,       497,       484,       469,       483
       281,       470,       484,        43,        44
       282,       472,       486,       499,       487
       283,       471,       492,       504,       486
       284,       501,       492,       474,       491
       285,       502,       491,       476,       488
       286,       477,       489,       500,       488
       287,       505,       489,       478,       490
       288,       503,       490,       473,       493
       289,       498,       485,       479,       487
       290,       506,       494,        97,        98
       291,       495,       507,       493,       475
       293,       508,       496,       480,       494
       294,       145,       146,       495,       481
       295,       482,       496,       183,       184
       296,       484,       497,        42,        43
       297,       510,       497,       485,       498
       298,       507,       509,       503,       493
       299,       487,       499,       511,       498
       300,       486,       504,       517,       499
       301,       513,       504,       492,       501
       302,       515,       501,       491,       502
       303,       488,       500,       516,       502
       304,       489,       505,       512,       500
       305,       514,       505,       490,       503
       306,       518,       506,        98,        99
       307,       494,       506,       519,       508
       308,       146,       147,       507,       495
       309,       182,       183,       496,       508
       311,       509,       520,       514,       503
       312,        41,        42,       497,       510
       313,       498,       511,       521,       510
       314,       499,       517,       527,       511
       315,       523,       517,       504,       513
       316,       524,       513,       501,       515
       317,       502,       516,       526,       515
       318,       500,       512,       525,       516
       319,       522,       512,       505,       514
       320,       528,       518,        99,       100
       321,       506,       518,       529,       519
       322,       508,       519,       181,       182
       323,       520,       509,       147,       148
       324,       522,       514,       520,       530
       325,       510,       521,        40,        41
       326,       511,       527,       537,       521
       327,       532,       523,       513,       524
       328,       533,       527,       517,       523
       329,       515,       526,       536,       524
       330,       516,       525,       535,       526
       331,       534,       525,       512,       522
       332,       101,       531,       528,       100
       333,       538,       529,       518,       528
       334,       519,       529,       180,       181
       335,       530,       520,       148,       149
       336,       534,       522,       530,       539
       337,       102,       541,       531,       101
       338,       521,       537,        39,        40
       339,       524,       536,       545,       532
       340,       544,       533,       523,       532
       341,       542,       537,       527,       533
       342,       543,       535,       525,       534
       343,       526,       535,       546,       536
       344,       531,       540,       538,       528
       345,       179,       180,       529,       538
       346,       539,       530,       149,       150
       347,       543,       534,       539,       548
       349,       541,       549,       540,       531
       350,       536,       546,       551,       545
       351,       550,       544,       532,       545
       352,        38,        39,       537,       542
       353,       552,       542,       533,       544
       354,       553,       546,       535,       543
       355,       554,       547,       102,       103
       356,       179,       538,       540,       178
       357,       548,       539,       150,       151
       358,       547,       555,       549,       541
       359,       543,       548,       557,       553
       360,       556,       178,       540,       549
       361,       560,       551,       546,       553
       362,       559,       550,       545,       551
       363,        37,        38,       542,       552
       364,       561,       552,       544,       550
       365,       103,       104,       558,       554
       366,       554,       562,       555,       547
       367,       152,       557,       548,       151
       368,       555,       563,       556,       549
       370,       565,       558,       104,       105
       371,       567,       559,       551,       560
       372,        36,        37,       552,       561
       373,       566,       561,       550,       559
       374,       553,       557,       568,       560
       375,       554,       558,       564,       562
       376,       562,       569,       563,       555
       377,       563,       570,       177,       556
       378,       568,       557,       152,       153
       379,       571,       564,       558,       565
       380,       574,       565,       105,       106
       381,        35,        36,       561,       566
       382,       573,       566,       559,       567
       383,       562,       564,       572,       569
       384,       567,       560,       568,       575
       385,       569,       576,       570,       563
       386,       570,       579,       176,       177
       387,       577,       572,       564,       571
       389,       581,       571,       565,       574
       390,       580,       574,       106,       107
       391,        34,        35,       566,       573
       392,       575,       583,       573,       567
       393,       569,       572,       582,       576
       394,       575,       568,       578,       584
       395,       576,       585,       579,       570
       396,       587,       578,       153,       154
       397,       586,       582,       572,       577
       398,       579,       588,       175,       176
       399,       581,       591,       577,       571
       400,       589,       580,       107,       108
       401,       590,       581,       574,       580
       402,       583,        33,        34,       573
       403,       584,       592,       583,       575
       404,       576,       582,       593,       585
       406,       594,       584,       578,       587
       407,       585,       595,       588,       579
       408,       596,       587,       154,       155
       409,       174,       175,       588,       597
       410,       582,       586,       601,       593
       411,       598,       590,       580,       589
       412,       581,       590,       599,       591
       413,       600,       589,       108,       109
       414,       592,        32,        33,       583
       415,       594,       602,       592,       584
       416,       585,       593,       603,       595
       417,       604,       594,       587,       596
       418,       597,       588,       595,       605
       419,       591,       610,       601,       586
       420,       155,       156,       606,       596
       421,       173,       174,       597,       607
       422,       590,       598,       608,       599
       423,       609,       598,       589,       600
       425,       109,       110,       612,       600
       426,       602,        31,        32,       592
       427,       593,       601,       611,       603
       428,       613,       602,       594,       604
       429,       605,       595,       603,       614
       430,       596,       606,       615,       604
       431,       607,       597,       605,       616
       432,       156,       157,       618,       606
       433,       172,       173,       607,       617
       434,       619,       608,       598,       609
       435,       599,       608,       620,       610
       436,       601,       610,       621,       611
       437,       600,       612,       623,       609
       438,       625,       612,       110,       111
       439,        30,        31,       602,       613
       440,       614,       603,       611,       622
       441,       604,       615,       624,       613
       442,       616,       605,       614,       626
       443,       617,       607,       616,       627
       444,       606,       618,       628,       615
       445,       629,       620,       608,       619
       446,       633,       618,       157,       158
       447,       171,       172,       617,       632
       448,       610,       620,       630,       621
       449,       622,       611,       621,       631
       450,       623,       196,       619,       609
       451,       636,       625,       111,       112
       452,       613,       624,        29,        30
       453,       626,       614,       622,       634
       454,       625,       195,       623,       612
       455,       626,       637,       627,       616
       456,       615,       628,       638,       624
       458,       633,       639,       628,       618
       459,       640,       630,       620,       629
       460,       631,       621,       630,       641
       461,       619,       196,       197,       629
       462,       642,       633,       158,       159
       463,       632,       644,       170,       171
       464,       617,       635,       646,       632
       466,       634,       622,       631,       643
       467,       645,       636,       112,       113
       468,       634,       647,       637,       626
       469,       624,       638,        28,        29
       470,       637,       649,       635,       627
       471,       194,       195,       625,       636
       472,       628,       639,       650,       638
       474,       197,       198,       640,       629
       475,       641,       630,       640,       651
       476,       643,       631,       641,       652
       477,       655,       642,       159,       160
       478,       644,       656,       169,       170
       479,       646,       658,       644,       632
       480,       653,       645,       113,       114
       481,       657,       648,       633,       642
       482,       647,       634,       643,       654
       483,       646,       635,       649,       659
       484,       647,       660,       649,       637
       485,       638,       650,        27,        28
       486,       639,       648,       661,       650
       487,       636,       645,       193,       194
       488,       651,       640,       198,       199
       489,       652,       641,       651,       662
       490,       654,       643,       652,       663
       491,       665,       655,       160,       161
       492,       656,       666,       168,       169
       493,       667,       657,       642,       655
       494,       658,       668,       656,       644
       495,       660,       647,       654,       664
       496,       659,       670,       658,       646
       497,       669,       661,       648,       657
       498,       672,       653,       114,       115
       499,       659,       649,       660,       671
       500,       650,       661,        26,        27
       501,       193,       645,       653,       192
       502,       662,       651,       199,       200
       503,       663,       652,       662,       673
       504,       664,       654,       663,       674
       505,       676,       665,       161,       162
       506,       666,       677,       167,       168
       507,       678,       667,       655,       665
       508,       668,       679,       666,       656
       509,       680,       669,       657,       667
       510,       671,       660,       664,       675
       511,       670,       681,       668,       658
       512,       671,       682,       670,       659
       513,        25,        26,       661,       669
       514,       115,       116,       683,       672
       515,       685,       192,       653,       672
       516,       673,       662,       200,       201
       517,       674,       663,       673,       684
       518,       675,       664,       674,       686
       519,       162,       163,       688,       676
       520,       677,       689,       166,       167
       521,       690,       678,       665,       676
       522,       679,       691,       677,       666
       523,       692,       680,       667,       678
       524,       675,       687,       682,       671
       525,       681,       693,       679,       668
       526,        24,        25,       669,       680
       527,       682,       694,       681,       670
       528,       116,       117,       695,       683
       529,       684,       673,       201,       202
       530,       683,       706,       685,       672
       531,       686,       674,       684,       697
       532,       689,       696,       165,       166
       533,       686,       698,       687,       675
       534,       192,       685,       708,       191
       535,       691,       701,       689,       677
       536,       676,       688,       707,       690
       537,       164,       709,       688,       163
       538,       687,       699,       694,       682
       539,       702,       692,       678,       690
       540,       693,       703,       691,       679
       541,        23,        24,       680,       692
       542,       694,       704,       693,       681
       543,       705,       695,       117,       118
       546,       697,       684,       202,       203
       547,       164,       165,       700,       709
       548,       697,       710,       698,       686
       549,       701,       711,       696,       689
       550,       698,       712,       699,       687
       551,       699,       713,       704,       694
       552,       719,       708,       685,       706
       553,       703,       714,       701,       691
       554,       707,       717,       702,       690
       555,        22,        23,       692,       702
       556,       704,       715,       703,       693
       557,       716,       705,       118,       119
       558,       718,       706,       695,       705
       559,       708,       720,       190,       191
       560,       709,       722,       707,       688
       561,       711,       721,       700,       696
       562,       203,       204,       710,       697
       563,       710,       723,       712,       698
       564,       712,       724,       713,       699
       565,       701,       714,       725,       711
       566,       709,       700,       721,       727
       567,       713,       726,       715,       704
       568,       715,       728,       714,       703
       569,       717,        21,        22,       702
       570,       729,       716,       119,       120
       571,       730,       718,       705,       716
       572,       731,       719,       706,       718
       573,       719,       732,       720,       708
       574,       722,       734,       717,       707
       575,       720,       733,       226,       190
       576,       204,       205,       723,       710
       577,       723,       735,       724,       712
       578,       736,       722,       709,       727
       579,       711,       725,       737,       721
       580,       724,       738,       726,       713
       581,       726,       739,       728,       715
       582,       714,       728,       741,       725
       583,       122,       729,       120,       121
       584,       742,       730,       716,       729
       585,       743,       731,       718,       730
       586,       734,        20,        21,       717
       587,       744,       732,       719,       731
       588,       732,       745,       733,       720
       589,       721,       737,       740,       727
       590,       225,       226,       733,       746
       591,       205,       206,       735,       723
       592,       747,       734,       722,       736
       594,       735,       748,       738,       724
       595,       738,       750,       739,       726
       596,       727,       740,       749,       736
       597,       751,       741,       728,       739
       598,       123,       742,       729,       122
       599,       754,       743,       730,       742
       600,       755,       744,       731,       743
       601,       757,       745,       732,       744
       602,        19,        20,       734,       747
       603,       746,       733,       745,       756
       605,       224,       225,       746,       758
       606,       206,       207,       748,       735
       607,       737,       741,       753,       752
       608,       736,       749,       759,       747
       609,       748,       760,       750,       738
       610,       762,       751,       739,       750
       611,       761,       749,       740,       752
       612,       763,       753,       741,       751
       613,       124,       754,       742,       123
       614,       743,       754,       767,       755
       615,       768,       757,       744,       755
       616,       756,       745,       757,       764
       617,       758,       746,       756,       765
       618,       747,       759,        18,        19
       619,       223,       224,       758,       770
       620,       207,       208,       760,       748
       621,       752,       753,       766,       761
       622,       769,       759,       749,       761
       623,       762,       750,       760,       771
       624,       772,       763,       751,       762
       625,       775,       766,       753,       763
       626,       765,       756,       764,       774
       627,       754,       124,       125,       767
       628,       765,       773,       770,       758
       629,       764,       757,       768,       776
       630,       755,       767,       778,       768
       631,        17,        18,       759,       769
       632,       769,       761,       766,       777
       633,       222,       223,       770,       779
       634,       771,       760,       208,       209
       635,       772,       762,       771,       781
       636,       783,       775,       763,       772
       637,       773,       765,       774,       782
       639,       774,       764,       776,       784
       640,       785,       777,       766,       775
       641,       767,       125,       126,       778
       642,       776,       768,       778,       786
       643,        16,        17,       769,       777
       644,       779,       787,       221,       222
       645,       779,       770,       780,       788
       646,       781,       771,       209,       210
       647,       780,       773,       782,       789
       648,       772,       781,       790,       783
       649,       784,       791,       782,       774
       650,       792,       785,       775,       783
       651,       784,       776,       786,       793
       652,        15,        16,       777,       785
       653,       786,       778,       126,       127
       654,       787,       794,       220,       221
       655,       788,       795,       787,       779
       656,       788,       780,       789,       796
       657,       790,       781,       210,       211
       658,       791,       797,       789,       782
       659,       783,       790,       799,       792
       660,       793,       798,       791,       784
       661,        14,        15,       785,       792
       662,       793,       786,       127,       128
       663,       794,       800,       219,       220
       664,       794,       787,       795,       801
       665,       796,       802,       795,       788
       666,       796,       789,       797,       804
       668,       798,       805,       797,       791
       669,       792,       799,        13,        14
       670,       798,       793,       128,       129
       671,       803,       807,       799,       790
       672,       800,       806,       218,       219
       673,       800,       794,       801,       808
       674,       801,       795,       802,       809
       675,       804,       810,       802,       796
       676,       804,       797,       805,       812
       677,       811,       803,       211,       212
       678,       805,       798,       129,       130
       679,       807,        12,        13,       799
       680,       806,       813,       217,       218
       681,       808,       815,       806,       800
       683,       808,       801,       809,       816
       684,       810,       817,       809,       802
       685,       812,       818,       810,       804
       686,       812,       805,       130,       131
       687,       814,       803,       811,       820
       688,       819,       811,       212,       213
       689,       216,       217,       813,       821
       690,        11,        12,       807,       814
       691,       815,       822,       813,       806
       692,       816,       823,       815,       808
       693,       817,       824,       816,       809
       694,       817,       810,       818,       826
       695,       825,       819,       213,       214
       696,       131,       132,       818,       812
       697,       827,       820,       811,       819
       698,       215,       216,       821,       828
       699,       814,       820,        10,        11
       700,       821,       813,       822,       829
       701,       823,       830,       822,       815
       702,       214,       215,       828,       834
       703,       824,       831,       823,       816
       704,       824,       817,       826,       832
       706,       833,       827,       819,       825
       707,       826,       818,       132,       133
       708,       820,       827,         9,        10
       709,       828,       821,       829,       835
       710,       836,       829,       822,       830
       711,       831,       837,       830,       823
       712,       832,       838,       831,       824
       713,       832,       826,       133,       134
       714,       834,       839,       833,       825
       715,         8,         9,       827,       833
       716,       841,       834,       828,       835
       717,       836,       840,       835,       829
       718,       842,       836,       830,       837
       719,       838,       844,       837,       831
       720,       134,       135,       838,       832
       721,       839,         7,         8,       833
       722,       845,       839,       834,       841
       724,       835,       840,       846,       841
       725,       848,       843,       836,       842
       726,       847,       842,       837,       844
       727,       135,       136,       844,       838
       728,         6,         7,       839,       845
       729,       840,       843,       850,       846
       730,       849,       845,       841,       846
       731,       851,       848,       842,       847
       732,       137,       847,       844,       136
       733,       853,       850,       843,       848
       734,         5,         6,       845,       849
       735,       852,       849,       846,       850
       736,       138,       851,       847,       137
       737,       855,       853,       848,       851
       738,         4,         5,       849,       852
       739,       850,       853,       854,       852
       740,       139,       855,       851,       138
       741,       852,       854,         3,         4
       742,       856,       854,       853,       855
       743,         2,         3,       854,       856
       744,       140,       856,       855,       139
       745,         1,         2,       856,       140
*****
